c A SAT instance generated from a 3-CNF formula that had 12 clauses and 6 variables
p cnf 6 12
1 6 2 0
-1 -5 -2 0
2 -6 4 0
1 -3 6 0
-2 -4 -6 0
3 -6 -4 0
4 -3 2 0
6 -1 4 0
3 6 4 0
-1 -3 -2 0
2 -4 -1 0
3 -1 -2 0
